Route #1: 12 4 26 34 35
Route #2: 2 6 28 3 11 43 41 27 21
Route #3: 39 24 44 33 14
Route #4: 31 29 19 36 5 32
Route #5: 9 22 30 37 1 42 8
Route #6: 10 15 25 23 17 38 13
Route #7: 40 20 16 7 18
Cost 1146
Time 0.109257
